NAME : 37SquareFarmCorner
COMMENT : A square area with 37 waypoints where first waypoint is in the upper-right corner
TYPE : TSP
DIMENSION : 37
EDGE_WEIGHT_TYPE : EUC_2D
NODE_COORD_SECTION
1 90 90
2 0 0
3 20 0
4 40 0
5 60 0
6 80 0
7 100 0
8 0 20
9 20 20
10 40 20
11 60 20
12 80 20
13 100 20
14 0 40
15 20 40
16 40 40
17 60 40
18 80 40
19 100 40
20 0 60
21 20 60
22 40 60
23 60 60
24 80 60
25 100 60
26 0 80
27 20 80
28 40 80
29 60 80
30 80 80
31 100 80
32 0 100
33 20 100
34 40 100
35 60 100
36 80 100
37 100 100
INVALID_EDGE_SECTION
EOF
